400
100 100
1 70 132
2 70 46
3 70 622
4 69 165
5 69 226
6 69 758
7 68 940
8 68 626
9 68 538
10 68 651
11 68 639
12 67 775
13 67 1
14 67 875
15 67 711
16 67 163
17 67 251
18 67 160
19 67 92
20 67 859
21 67 953
22 67 19
23 67 673
24 66 636
25 66 272
26 66 562
27 66 445
28 66 776
29 66 56
30 66 343
31 66 136
32 66 441
33 65 995
34 65 661
35 65 613
36 65 908
37 65 440
38 64 909
39 64 463
40 64 91
41 64 114
42 64 931
43 63 103
44 63 750
45 63 925
46 63 96
47 63 199
48 63 312
49 63 24
50 62 74
51 62 122
52 62 128
53 62 457
54 62 834
55 62 5
56 61 702
57 61 170
58 61 842
59 61 254
60 61 188
61 61 629
62 61 262
63 61 58
64 60 167
65 60 849
66 60 452
67 60 511
68 60 133
69 60 866
70 60 114
71 59 197
72 59 325
73 59 420
74 59 160
75 59 331
76 59 728
77 59 884
78 59 950
79 58 874
80 58 527
81 58 373
82 58 497
83 57 330
84 57 370
85 57 639
86 57 637
87 57 171
88 56 189
89 56 250
90 56 495
91 56 114
92 56 918
93 55 621
94 55 5
95 55 337
96 55 955
97 54 257
98 54 34
99 54 50
100 53 553
101 53 221
102 53 538
103 53 887
104 52 453
105 52 292
106 52 351
107 52 48
108 52 726
109 52 820
110 52 452
111 52 845
112 51 882
113 51 897
114 51 132
115 51 140
116 51 325
117 51 267
118 51 575
119 50 725
120 50 136
121 50 909
122 50 310
123 50 192
124 49 658
125 49 69
126 49 973
127 49 790
128 49 616
129 48 174
130 48 686
131 48 458
132 48 102
133 48 703
134 48 175
135 48 400
136 48 462
137 47 979
138 47 859
139 47 812
140 47 505
141 46 525
142 46 730
143 46 312
144 46 56
145 45 859
146 45 792
147 45 557
148 45 892
149 45 246
150 45 296
151 45 948
152 45 48
153 45 34
154 45 864
155 45 882
156 45 38
157 44 828
158 44 618
159 44 256
160 44 865
161 44 646
162 43 222
163 43 429
164 43 574
165 43 19
166 43 856
167 43 403
168 43 930
169 43 587
170 43 634
171 43 82
172 43 245
173 43 867
174 42 25
175 42 111
176 42 56
177 42 723
178 42 355
179 41 877
180 41 576
181 41 196
182 41 400
183 41 563
184 41 352
185 41 129
186 41 599
187 41 868
188 41 671
189 41 717
190 41 145
191 40 651
192 40 715
193 40 896
194 40 180
195 40 654
196 40 600
197 40 471
198 40 221
199 39 445
200 39 408
201 39 423
202 39 174
203 39 457
204 39 849
205 38 227
206 38 146
207 38 402
208 38 662
209 38 848
210 38 536
211 37 275
212 37 491
213 37 995
214 37 865
215 37 777
216 37 876
217 37 880
218 37 9
219 37 724
220 37 707
221 36 618
222 36 654
223 36 790
224 36 161
225 36 550
226 36 708
227 36 763
228 36 446
229 36 849
230 36 477
231 36 937
232 36 65
233 35 614
234 35 167
235 35 183
236 35 659
237 35 533
238 35 487
239 35 8
240 34 927
241 34 733
242 34 851
243 34 910
244 34 358
245 34 728
246 34 755
247 33 753
248 33 534
249 33 787
250 33 488
251 33 187
252 33 729
253 33 355
254 33 625
255 33 538
256 32 343
257 32 690
258 32 131
259 32 359
260 32 531
261 32 680
262 31 597
263 31 476
264 31 796
265 31 588
266 31 727
267 31 118
268 30 447
269 30 453
270 30 940
271 30 137
272 30 989
273 30 975
274 29 701
275 29 589
276 29 934
277 29 639
278 29 440
279 29 531
280 29 135
281 28 531
282 28 677
283 28 687
284 28 374
285 28 195
286 28 424
287 28 449
288 28 541
289 28 807
290 28 332
291 27 156
292 27 603
293 27 132
294 27 378
295 27 430
296 26 297
297 26 627
298 25 402
299 25 136
300 25 663
301 25 169
302 25 558
303 25 930
304 25 315
305 25 851
306 24 710
307 24 4
308 23 15
309 23 692
310 23 589
311 23 475
312 23 364
313 23 643
314 23 158
315 23 547
316 22 106
317 22 312
318 22 316
319 22 95
320 22 122
321 21 450
322 21 417
323 21 131
324 21 744
325 21 684
326 21 756
327 21 147
328 21 83
329 21 477
330 21 560
331 20 800
332 20 784
333 20 893
334 20 445
335 20 21
336 20 294
337 20 601
338 20 453
339 20 982
340 19 500
341 19 26
342 18 732
343 18 491
344 18 543
345 18 509
346 18 672
347 18 214
348 18 448
349 18 931
350 18 401
351 17 297
352 17 999
353 17 577
354 17 356
355 16 167
356 16 955
357 16 332
358 16 879
359 15 163
360 15 426
361 15 715
362 15 329
363 15 753
364 15 855
365 15 765
366 15 524
367 15 344
368 15 86
369 14 424
370 14 601
371 14 157
372 14 860
373 14 387
374 14 715
375 13 185
376 13 894
377 13 714
378 13 807
379 13 615
380 13 791
381 12 931
382 12 784
383 12 216
384 12 651
385 12 503
386 12 371
387 12 828
388 12 90
389 11 960
390 11 316
391 11 389
392 11 517
393 11 427
394 11 762
395 10 5
396 10 8
397 10 673
398 10 928
399 10 939
400 10 694
